
n_res = 6;
rcap = [78, 74, 287, 292, 298, 306];
rtype = [1, 1, 2, 2, 2, 2];
n_tasks = 50;
modes =  [{1, 2, 3}, {4, 5, 6}, {7, 8, 9}, {10, 11, 12}, {13, 14, 15}, {16, 17, 18}, {19, 20, 21}, {22, 23, 24}, {25, 26, 27}, {28, 29, 30}, {31, 32, 33}, {34, 35, 36}, {37, 38, 39}, {40, 41, 42}, {43, 44, 45}, {46, 47, 48}, {49, 50, 51}, {52, 53, 54}, {55, 56, 57}, {58, 59, 60}, {61, 62, 63}, {64, 65, 66}, {67, 68, 69}, {70, 71, 72}, {73, 74, 75}, {76, 77, 78}, {79, 80, 81}, {82, 83, 84}, {85, 86, 87}, {88, 89, 90}, {91, 92, 93}, {94, 95, 96}, {97, 98, 99}, {100, 101, 102}, {103, 104, 105}, {106, 107, 108}, {109, 110, 111}, {112, 113, 114}, {115, 116, 117}, {118, 119, 120}, {121, 122, 123}, {124, 125, 126}, {127, 128, 129}, {130, 131, 132}, {133, 134, 135}, {136, 137, 138}, {139, 140, 141}, {142, 143, 144}, {145, 146, 147}, {148, 149, 150}];
succ =  [{50, 48, 46, 27, 24, 23, 21, 20, 14, 12}, {50, 49, 47, 44, 42, 40, 33, 32, 28, 26, 24, 18}, {49, 48, 47, 45, 43, 41, 33, 27, 23, 14}, {47, 40, 38, 33, 32, 29, 28, 25, 24, 22}, {50, 48, 46, 33, 31, 21, 14}, {49, 47, 45, 44, 43, 42, 40, 39, 36, 33, 31, 30, 26}, {47, 46, 45, 44, 42, 40, 39, 38, 36, 33, 30, 28}, {50, 48, 44, 43, 42, 41, 39, 38, 31, 30, 23}, {49, 44, 43, 42, 41, 40, 39, 38, 36, 30}, {47, 46, 43, 42, 41, 38, 37, 36, 31, 30}, {46, 45, 42, 41, 39, 38, 37, 36, 35, 34}, {45, 43, 42, 40, 38, 31, 30, 29}, {47, 42, 40, 39, 36, 30, 28}, {40, 38, 37, 32, 30, 25}, {49, 48, 43, 38, 30, 23}, {49, 45, 39, 38, 31, 30, 29}, {40, 38, 36, 31, 30, 29}, {46, 45, 43, 41, 39, 38, 36}, {47, 45, 44, 39, 37, 31}, {44, 43, 41, 33, 30}, {44, 41, 40, 37, 35}, {43, 39, 36, 35}, {40, 35, 32}, {43, 41, 30}, {42, 39, 35}, {48, 46, 38}, {44, 37, 35}, {41, 31}, {37, 35}, {35}, {35}, {36}, {37}, {44}, {}, {}, {}, {}, {}, {}, {}, {}, {}, {}, {}, {}, {}, {}, {}, {}];
n_opt = 150;
dur = [3, 4, 9, 2, 3, 10, 1, 2, 8, 1, 3, 8, 2, 8, 10, 2, 6, 9, 4, 5, 8, 3, 8, 10, 1, 4, 10, 3, 4, 8, 6, 7, 8, 1, 3, 7, 3, 5, 9, 4, 7, 8, 2, 3, 4, 4, 7, 8, 1, 7, 8, 2, 6, 7, 3, 4, 10, 1, 7, 8, 1, 7, 10, 6, 7, 9, 4, 5, 7, 4, 6, 9, 4, 6, 8, 2, 4, 8, 1, 6, 10, 4, 5, 7, 7, 9, 10, 4, 5, 8, 5, 8, 9, 1, 3, 9, 6, 9, 10, 3, 4, 10, 5, 7, 8, 2, 8, 9, 3, 7, 8, 4, 5, 10, 1, 8, 9, 1, 7, 10, 3, 7, 9, 1, 4, 7, 4, 5, 6, 2, 4, 7, 4, 6, 7, 3, 7, 8, 2, 6, 10, 2, 3, 7, 7, 8, 9, 2, 3, 7];
rreq = [|5, 5, 4, 5, 4, 4, 8, 7, 7, 7, 5, 2, 6, 5, 2, 2, 2, 2, 5, 4, 4, 9, 7, 5, 6, 5, 4, 2, 2, 2, 6, 5, 5, 3, 3, 2, 9, 8, 4, 8, 7, 7, 5, 5, 4, 5, 4, 3, 9, 8, 8, 5, 4, 2, 1, 1, 1, 8, 7, 7, 9, 9, 8, 5, 5, 2, 10, 9, 7, 6, 4, 2, 1, 1, 1, 6, 3, 1, 10, 6, 4, 7, 4, 3, 9, 6, 2, 4, 3, 2, 1, 1, 1, 7, 7, 3, 6, 5, 3, 10, 8, 8, 6, 3, 2, 6, 2, 2, 7, 3, 2, 3, 3, 3, 6, 2, 2, 7, 5, 4, 5, 5, 4, 10, 4, 1, 7, 4, 2, 8, 4, 1, 4, 3, 2, 10, 9, 8, 5, 3, 3, 8, 7, 7, 9, 6, 5, 7, 6, 5
 |7, 6, 6, 4, 2, 2, 5, 5, 5, 6, 6, 4, 6, 6, 5, 4, 4, 2, 2, 2, 1, 8, 8, 5, 1, 1, 1, 7, 6, 5, 4, 4, 3, 6, 5, 4, 6, 6, 3, 6, 3, 2, 8, 6, 3, 5, 5, 5, 3, 1, 1, 8, 7, 7, 4, 4, 4, 5, 4, 4, 10, 9, 7, 4, 4, 4, 4, 4, 4, 7, 7, 4, 10, 10, 10, 8, 7, 7, 9, 8, 7, 4, 4, 2, 8, 6, 3, 5, 4, 4, 2, 2, 2, 1, 1, 1, 7, 6, 5, 9, 9, 9, 9, 6, 4, 3, 3, 3, 3, 2, 2, 5, 4, 4, 6, 6, 6, 9, 5, 4, 9, 6, 5, 9, 7, 7, 3, 2, 1, 8, 7, 4, 8, 8, 7, 10, 7, 6, 8, 5, 5, 5, 4, 4, 10, 9, 8, 9, 7, 5
 |7, 6, 5, 9, 6, 5, 4, 3, 3, 6, 5, 5, 6, 6, 6, 5, 4, 2, 5, 3, 2, 6, 4, 1, 9, 9, 8, 9, 6, 2, 10, 9, 9, 9, 5, 3, 8, 8, 8, 7, 5, 2, 3, 2, 1, 8, 8, 8, 5, 4, 4, 8, 8, 7, 5, 3, 1, 8, 7, 6, 6, 6, 6, 8, 5, 3, 1, 1, 1, 7, 7, 5, 3, 3, 1, 4, 3, 2, 4, 2, 2, 7, 7, 7, 9, 9, 9, 10, 8, 7, 6, 3, 1, 8, 8, 8, 4, 2, 2, 3, 3, 3, 7, 6, 5, 4, 2, 2, 5, 4, 4, 6, 6, 2, 8, 7, 5, 5, 2, 1, 7, 7, 7, 7, 5, 5, 7, 6, 2, 8, 8, 6, 8, 4, 1, 3, 3, 1, 4, 3, 2, 6, 6, 6, 7, 5, 5, 7, 5, 2
 |8, 7, 4, 3, 2, 1, 9, 7, 6, 10, 6, 5, 7, 6, 2, 8, 7, 7, 7, 6, 6, 9, 6, 6, 3, 2, 2, 9, 7, 3, 6, 3, 1, 7, 7, 7, 2, 2, 1, 6, 5, 4, 5, 5, 5, 8, 4, 3, 8, 7, 7, 9, 8, 7, 9, 9, 8, 8, 8, 5, 6, 4, 4, 6, 6, 5, 8, 6, 4, 6, 6, 6, 5, 5, 5, 9, 7, 7, 3, 3, 3, 10, 7, 5, 6, 3, 2, 7, 4, 2, 8, 4, 2, 7, 6, 5, 2, 2, 2, 3, 2, 2, 3, 2, 2, 6, 6, 2, 5, 5, 4, 6, 4, 4, 10, 8, 6, 3, 2, 2, 7, 5, 3, 6, 4, 1, 9, 9, 8, 2, 1, 1, 4, 3, 3, 7, 6, 6, 7, 4, 4, 4, 2, 2, 9, 7, 4, 8, 7, 5
 |8, 6, 6, 10, 10, 10, 6, 6, 6, 9, 6, 6, 6, 5, 3, 5, 4, 3, 7, 5, 2, 8, 5, 5, 1, 1, 1, 4, 4, 4, 5, 3, 2, 7, 5, 3, 9, 8, 8, 6, 4, 3, 10, 6, 5, 7, 5, 3, 7, 6, 6, 9, 7, 2, 7, 6, 6, 6, 5, 3, 8, 7, 7, 4, 3, 2, 7, 5, 5, 5, 5, 5, 8, 6, 6, 3, 3, 3, 5, 3, 2, 6, 4, 1, 5, 4, 4, 4, 4, 4, 8, 6, 4, 10, 7, 3, 8, 4, 4, 7, 7, 6, 3, 3, 3, 8, 7, 7, 6, 4, 4, 7, 4, 4, 8, 6, 6, 9, 9, 9, 8, 7, 7, 8, 5, 2, 7, 5, 3, 4, 3, 3, 7, 4, 3, 5, 5, 2, 3, 3, 1, 6, 5, 4, 7, 6, 4, 7, 7, 6
 |4, 4, 2, 9, 8, 8, 6, 5, 4, 5, 3, 1, 8, 6, 3, 3, 2, 2, 9, 7, 7, 5, 4, 3, 5, 5, 5, 8, 5, 4, 3, 3, 3, 6, 5, 4, 2, 1, 1, 7, 7, 7, 6, 4, 3, 9, 8, 8, 5, 4, 3, 10, 7, 4, 7, 3, 2, 10, 9, 8, 7, 5, 4, 6, 3, 3, 10, 7, 6, 7, 7, 7, 5, 4, 1, 7, 7, 7, 7, 6, 6, 8, 5, 3, 6, 6, 5, 9, 4, 1, 6, 6, 5, 5, 5, 5, 6, 2, 2, 7, 5, 4, 9, 9, 7, 9, 9, 7, 10, 9, 8, 8, 7, 6, 8, 8, 8, 3, 3, 2, 4, 4, 4, 6, 4, 3, 9, 5, 3, 8, 7, 5, 7, 6, 3, 5, 3, 3, 9, 9, 7, 5, 4, 3, 6, 6, 6, 7, 4, 1|];